nbNodes = 12;
nbVehi = 3;
nbServi = 4;

e = 
 [ 0,  388,  436,  104,  220,   70,  328,  398,  446,  177,  359,    0,];

l = 
 [480, 480, 520, 166, 320, 151, 407, 504, 519, 244, 459, 480,];

a = 
 [|  1,  1,  1,  1,
 |  1,  1,  0,  1,
 |  1,  1,  1,  1,
 |];

p = array3d(1..nbNodes,1..nbVehi,1..nbServi,
[  0,  0,  0,  0,	  0,  0,  0,  0,	  0,  0,  0,  0,	
 27, 34, 10, 28,	 19, 26, 27, 31,	 25, 20, 24, 21,	
 21, 10, 36, 27,	 15, 13, 13, 29,	 33, 15, 15, 36,	
 17, 12, 15, 25,	 32, 25, 15, 29,	 26, 31, 23, 21,	
 32, 11, 34, 32,	 22, 29, 31, 28,	 25, 38, 28, 21,	
 22, 14, 28, 29,	 27, 13, 23, 11,	 31, 29, 18, 30,	
 14, 29, 31, 32,	 34, 16, 20, 34,	 11, 23, 26, 29,	
 24, 28, 24, 22,	 33, 29, 18, 14,	 33, 12, 33, 18,	
 30, 30, 32, 26,	 33, 14, 32, 12,	 33, 30, 34, 34,	
 19, 26, 23, 20,	 20, 28, 12, 29,	 26, 22, 17, 12,	
 33, 33, 10, 18,	 12, 33, 16, 28,	 30, 22, 13, 16,	
  0,  0,  0,  0,	  0,  0,  0,  0,	  0,  0,  0,  0,	
]);

rs = 
[|  true,  true,  true,  true,	 	
|  false,  false,  true,  false,	  	
|  true,  false,  false,  false,	  	
|  false,  false,  false,  true,	  	
|  false,  false,  false,  true,	  	
|  true,  false,  false,  false,	  	
|  true,  false,  false,  false,	  	
|  false,  false,  false,  true,	  	
|  false,  true,  false,  false,	  	
|  false,  true,  false,  false,	  	
|  false,  false,  true,  false,	  	
|  true,  true,  true,  true,	  	
|];

d=[|0, 24, 0, 0, 10, 3, 13, 25, 3, 11, 2, 0, 
|24, 0, 24, 24, 34, 21, 36, 33, 27, 31, 23, 24, 
|0, 24, 0, 0, 10, 3, 13, 25, 3, 11, 2, 0, 
|0, 24, 0, 0, 10, 3, 13, 25, 3, 11, 2, 0, 
|10, 34, 10, 10, 0, 13, 7, 26, 7, 12, 11, 10, 
|3, 21, 3, 3, 13, 0, 15, 26, 6, 12, 4, 3, 
|13, 36, 13, 13, 7, 15, 0, 34, 10, 6, 15, 13, 
|25, 33, 25, 25, 26, 26, 34, 0, 26, 36, 23, 25, 
|3, 27, 3, 3, 7, 6, 10, 26, 0, 9, 5, 3, 
|11, 31, 11, 11, 12, 12, 6, 36, 9, 0, 13, 11, 
|2, 23, 2, 2, 11, 4, 15, 23, 5, 13, 0, 2, 
|0, 24, 0, 0, 10, 3, 13, 25, 3, 11, 2, 0, 
|];
